proyfinal/src/viki/013/experimentInOfficeAgust.take6.output/0b7bb659-f30c-4ab7-9af6-cf297bccd30c.als.dat
{'cnf.clauses': '118081',
 'cnf.totvars': '69608',
 'conflict literals': '11',
 'conflicts': '7',
 'decisions': '1288',
 'memused.mb': '14.85',
 'outcome': 'UNSAT',
 'propagations': '22034',
 'restarts': '1',
 'solver.msecs': 31,
 'task.msecs': 116}
