proyfinal/src/viki/013/experimentInOfficeAgust.take6.output/0b7bb659-f30c-4ab7-9af6-cf297bccd30c.als.out
Reading from standard input... Use '--help' for help.
============================[ Problem Statistics ]=============================
|                                                                             |
|  Number of variables:         69608                                         |
|  Number of clauses:          118081                                         |
|  Parse time:                   0.02 s                                       |
|                                                                             |
============================[ Search Statistics ]==============================
| Conflicts |          ORIGINAL         |          LEARNT          | Progress |
|           |    Vars  Clauses Literals |    Limit  Clauses Lit/Cl |          |
===============================================================================
===============================================================================
restarts              : 1
conflicts             : 7              (223 /sec)
decisions             : 1288           (0.00 % random) (41099 /sec)
propagations          : 22034          (703086 /sec)
conflict literals     : 11             (0.00 % deleted)
Memory used           : 14.85 MB
CPU time              : 0.031339 s

UNSATISFIABLE
